Sc-Sc-C-Te-Te                           
   1.0000000000000000     
     3.4208259027566625    0.0000000000000000    0.0000000000000000
    -1.7104129513783313    2.9625221337106362    0.0000000000000000
     0.0000000000000000    0.0000000000000000   28.0432449661135017
   Sc   C    Te
     2     1     2
Direct
  0.3333329854322145  0.6666669831836742  0.2577770250898155
  0.6666669847440474  0.3333329859851446  0.3443841377101791
  0.0000000000000000  0.0000000000000000  0.3010806083999995
  0.3333329854322145  0.6666669831836742  0.4267905217368195
  0.6666669847440474  0.3333329859851446  0.1753706414631822

  0.00000000E+00  0.00000000E+00  0.00000000E+00
  0.00000000E+00  0.00000000E+00  0.00000000E+00
  0.00000000E+00  0.00000000E+00  0.00000000E+00
  0.00000000E+00  0.00000000E+00  0.00000000E+00
  0.00000000E+00  0.00000000E+00  0.00000000E+00
