Sc-Sc-C-S-S                             
   1.0000000000000000     
     3.5220532878198836    0.0000000000000000    0.0000000000000000
    -1.7610266439099418    3.0501876207302758    0.0000000000000000
     0.0000000000000000    0.0000000000000005   29.2812517726295809
   Sc   C    S 
     2     1     2
Direct
  0.3333329854322145  0.6666669831836742  0.2552873088171594
  0.6666669847440474  0.3333329859851446  0.3468738539828351
  0.0000000000000000  0.0000000000000000  0.3010806083999995
  0.3333329854322145  0.6666669831836742  0.3958749542416271
  0.6666669847440474  0.3333329859851446  0.2062862089583746

  0.00000000E+00  0.00000000E+00  0.00000000E+00
  0.00000000E+00  0.00000000E+00  0.00000000E+00
  0.00000000E+00  0.00000000E+00  0.00000000E+00
  0.00000000E+00  0.00000000E+00  0.00000000E+00
  0.00000000E+00  0.00000000E+00  0.00000000E+00
