Y-Y-C-Te-Te                             
   1.0000000000000000     
     3.6409808830778689    0.0000000000000000    0.0000000000000000
    -1.8204904415389345    3.1531819394777263    0.0000000000000001
     0.0000000000000000   -0.0000000000000002   24.4619337296053558
   Y    C    Te
     2     1     2
Direct
  0.3333329854322145  0.6666669831836742  0.2457223103925088
  0.6666669847440474  0.3333329859851446  0.3564388524074857
  0.0000000000000000  0.0000000000000000  0.3010806083999995
  0.3333329854322145  0.6666669831836742  0.4549505379316230
  0.6666669847440474  0.3333329859851446  0.1472106252683787

  0.00000000E+00  0.00000000E+00  0.00000000E+00
  0.00000000E+00  0.00000000E+00  0.00000000E+00
  0.00000000E+00  0.00000000E+00  0.00000000E+00
  0.00000000E+00  0.00000000E+00  0.00000000E+00
  0.00000000E+00  0.00000000E+00  0.00000000E+00
