Y-Y-C-OH-OH                             
   1.0000000000000000     
     3.5881064480410401    0.0000000000000000    0.0000000000000000
    -1.7940532240205200    3.1073913354972356    0.0000000000000000
     0.0000000000000000    0.0000000000000000   26.9050643584328100
   Y    C    O    H 
     2     1     2     2
Direct
  0.3333329854322145  0.6666669831836742  0.2500469025183776
  0.6666669847440474  0.3333329859851446  0.3521142602816170
  0.0000000000000000  0.0000000000000000  0.3010806083999995
  0.3333329854322145  0.6666669831836742  0.4003924079897345
  0.6666669847440474  0.3333329859851446  0.2017687552102672
  0.3333329854322145  0.6666669831836742  0.4363910693392796
  0.6666669847440474  0.3333329859851446  0.1657700938607150

  0.00000000E+00  0.00000000E+00  0.00000000E+00
  0.00000000E+00  0.00000000E+00  0.00000000E+00
  0.00000000E+00  0.00000000E+00  0.00000000E+00
  0.00000000E+00  0.00000000E+00  0.00000000E+00
  0.00000000E+00  0.00000000E+00  0.00000000E+00
  0.00000000E+00  0.00000000E+00  0.00000000E+00
  0.00000000E+00  0.00000000E+00  0.00000000E+00
