Y-Y-C-S-S                               
   1.0000000000000000     
     3.8432908082965955    0.0000000000000000    0.0000000000000000
    -1.9216454041482978    3.3283874741610791    0.0000000000000000
     0.0000000000000000    0.0000000000000002   25.1376480304627208
   Y    C    S 
     2     1     2
Direct
  0.3333329854322145  0.6666669831836742  0.2425115284335533
  0.6666669847440474  0.3333329859851446  0.3596496343664413
  0.0000000000000000  0.0000000000000000  0.3010806083999995
  0.3333329854322145  0.6666669831836742  0.4161791326810089
  0.6666669847440474  0.3333329859851446  0.1859820305189928

  0.00000000E+00  0.00000000E+00  0.00000000E+00
  0.00000000E+00  0.00000000E+00  0.00000000E+00
  0.00000000E+00  0.00000000E+00  0.00000000E+00
  0.00000000E+00  0.00000000E+00  0.00000000E+00
  0.00000000E+00  0.00000000E+00  0.00000000E+00
