Sc-Sc-C-O-O                             
   1.0000000000000000     
     3.2233905658829625    0.0000000000000000    0.0000000000000000
    -1.6116952829414812    2.7915381163518287    0.0000000000000001
     0.0000000000000000   -0.0000000000000018   31.8658978456621789
   Sc   C    O 
     2     1     2
Direct
  0.3333329854322145  0.6666669831836742  0.2477541937522219
  0.6666669847440474  0.3333329859851446  0.3544069690477727
  0.0000000000000000  0.0000000000000000  0.3010806083999995
  0.3333329854322145  0.6666669831836742  0.3779733982739160
  0.6666669847440474  0.3333329859851446  0.2241877649260857

  0.00000000E+00  0.00000000E+00  0.00000000E+00
  0.00000000E+00  0.00000000E+00  0.00000000E+00
  0.00000000E+00  0.00000000E+00  0.00000000E+00
  0.00000000E+00  0.00000000E+00  0.00000000E+00
  0.00000000E+00  0.00000000E+00  0.00000000E+00
