Sc-Sc-C-F-F                             
   1.0000000000000000     
     3.2751060589508647    0.0000000000000000    0.0000000000000000
    -1.6375530294754324    2.8363250471367896    0.0000000000000000
     0.0000000000000000   -0.0000000000000005   32.1830204238835051
   Sc   C    F 
     2     1     2
Direct
  0.3333329854322145  0.6666669831836742  0.2617242224145784
  0.6666669847440474  0.3333329859851446  0.3404369403854162
  0.0000000000000000  0.0000000000000000  0.3010806083999995
  0.3333329854322145  0.6666669831836742  0.3759397831227531
  0.6666669847440474  0.3333329859851446  0.2262213800772486

  0.00000000E+00  0.00000000E+00  0.00000000E+00
  0.00000000E+00  0.00000000E+00  0.00000000E+00
  0.00000000E+00  0.00000000E+00  0.00000000E+00
  0.00000000E+00  0.00000000E+00  0.00000000E+00
  0.00000000E+00  0.00000000E+00  0.00000000E+00
