Y-Y-C-F-F                               
   1.0000000000000000     
     3.5698185187063003    0.0000000000000000    0.0000000000000000
    -1.7849092593531501    3.0915535241050041    0.0000000000000000
     0.0000000000000000    0.0000000000000001   26.9527048432317180
   Y    C    F 
     2     1     2
Direct
  0.3333329854322145  0.6666669831836742  0.2501712533532086
  0.6666669847440474  0.3333329859851446  0.3519899094467860
  0.0000000000000000  0.0000000000000000  0.3010806083999995
  0.3333329854322145  0.6666669831836742  0.3954920319561666
  0.6666669847440474  0.3333329859851446  0.2066691312438351

  0.00000000E+00  0.00000000E+00  0.00000000E+00
  0.00000000E+00  0.00000000E+00  0.00000000E+00
  0.00000000E+00  0.00000000E+00  0.00000000E+00
  0.00000000E+00  0.00000000E+00  0.00000000E+00
  0.00000000E+00  0.00000000E+00  0.00000000E+00
