Sc-Sc-C-Se-Se                           
   1.0000000000000000     
     3.3205602664466851    0.0000000000000000    0.0000000000000000
    -1.6602801332233426    2.8756895455396254    0.0000000000000000
     0.0000000000000000    0.0000000000000000   28.0432449661135017
   Sc   C    Se
     2     1     2
Direct
  0.3333329854322145  0.6666669831836742  0.2560716588664675
  0.6666669847440474  0.3333329859851446  0.3460895039335270
  0.0000000000000000  0.0000000000000000  0.3010806083999995
  0.3333329854322145  0.6666669831836742  0.4187780885855048
  0.6666669847440474  0.3333329859851446  0.1833830746144969

  0.00000000E+00  0.00000000E+00  0.00000000E+00
  0.00000000E+00  0.00000000E+00  0.00000000E+00
  0.00000000E+00  0.00000000E+00  0.00000000E+00
  0.00000000E+00  0.00000000E+00  0.00000000E+00
  0.00000000E+00  0.00000000E+00  0.00000000E+00
