Y-Y-C-O-O                               
   1.0000000000000000     
     3.5295080158582453    0.0000000000000000    0.0000000000000000
    -1.7647540079291226    3.0566436046043930    0.0000000000000000
     0.0000000000000000    0.0000000000000000   26.9050643584328100
   Y    C    O 
     2     1     2
Direct
  0.3333329854322145  0.6666669831836742  0.2355789564348640
  0.6666669847440474  0.3333329859851446  0.3665822063651305
  0.0000000000000000  0.0000000000000000  0.3010806083999995
  0.3333329854322145  0.6666669831836742  0.3943180846522125
  0.6666669847440474  0.3333329859851446  0.2078430785477892

  0.00000000E+00  0.00000000E+00  0.00000000E+00
  0.00000000E+00  0.00000000E+00  0.00000000E+00
  0.00000000E+00  0.00000000E+00  0.00000000E+00
  0.00000000E+00  0.00000000E+00  0.00000000E+00
  0.00000000E+00  0.00000000E+00  0.00000000E+00
