Sc-Sc-C                                 
   1.0000000000000000     
     3.3116008425220849    0.0000000000000000    0.0000000000000000
    -1.6558004212610424    2.8679304568176458    0.0000000000000000
     0.0000000000000000    0.0000000000000000   28.0432449661135017
   Sc   C 
     2     1
Direct
  0.3333329854322145  0.6666669831836742  0.2578110295723874
  0.6666669847440474  0.3333329859851446  0.3443501332276071
  0.0000000000000000  0.0000000000000000  0.3010806083999995

  0.00000000E+00  0.00000000E+00  0.00000000E+00
  0.00000000E+00  0.00000000E+00  0.00000000E+00
  0.00000000E+00  0.00000000E+00  0.00000000E+00
