Y-Y-C                                   
   1.0000000000000000     
     3.5504509285669545    0.0000000000000000    0.0000000000000000
    -1.7752254642834773    3.0747806990412476    0.0000000000000000
     0.0000000000000000    0.0000000000000000   25.1376476287999999
   Y    C 
     2     1
Direct
  0.3333329849999984  0.6666669829999989  0.2474461208589105
  0.6666669849999991  0.3333329860000021  0.3547150411410911
  0.0000000000000000  0.0000000000000000  0.3010806079999995

  0.00000000E+00  0.00000000E+00  0.00000000E+00
  0.00000000E+00  0.00000000E+00  0.00000000E+00
  0.00000000E+00  0.00000000E+00  0.00000000E+00
