Sc-Sc-C-OH-OH                           
   1.0000000000000000     
     3.3002936689604505    0.0000000000000000    0.0000000000000000
    -1.6501468344802253    2.8581381572450315    0.0000000000000001
     0.0000000000000000   -0.0000000000000018   31.8658978456621789
   Sc   C    O    H 
     2     1     2     2
Direct
  0.3333329854322145  0.6666669831836742  0.2614330049870830
  0.6666669847440474  0.3333329859851446  0.3407281578129115
  0.0000000000000000  0.0000000000000000  0.3010806083999995
  0.3333329854322145  0.6666669831836742  0.3795200072826148
  0.6666669847440474  0.3333329859851446  0.2226411559173869
  0.3333329854322145  0.6666669831836742  0.4098696743027759
  0.6666669847440474  0.3333329859851446  0.1922914888972187

  0.00000000E+00  0.00000000E+00  0.00000000E+00
  0.00000000E+00  0.00000000E+00  0.00000000E+00
  0.00000000E+00  0.00000000E+00  0.00000000E+00
  0.00000000E+00  0.00000000E+00  0.00000000E+00
  0.00000000E+00  0.00000000E+00  0.00000000E+00
  0.00000000E+00  0.00000000E+00  0.00000000E+00
  0.00000000E+00  0.00000000E+00  0.00000000E+00
