Y-Y-C-Cl-Cl                             
   1.0000000000000000     
     3.7165361758277591    0.0000000000000000    0.0000000000000000
    -1.8582680879138795    3.2186147423915479    0.0000000000000000
     0.0000000000000000    0.0000000000000002   25.1376480304627208
   Y    C    Cl
     2     1     2
Direct
  0.3333329854322145  0.6666669831836742  0.2476203200207223
  0.6666669847440474  0.3333329859851446  0.3545408427792722
  0.0000000000000000  0.0000000000000000  0.3010806083999995
  0.3333329854322145  0.6666669831836742  0.4239599320446104
  0.6666669847440474  0.3333329859851446  0.1782012311553913

  0.00000000E+00  0.00000000E+00  0.00000000E+00
  0.00000000E+00  0.00000000E+00  0.00000000E+00
  0.00000000E+00  0.00000000E+00  0.00000000E+00
  0.00000000E+00  0.00000000E+00  0.00000000E+00
  0.00000000E+00  0.00000000E+00  0.00000000E+00
