Y-Y-C-I-I                               
   1.0000000000000000     
     3.8685311361134795    0.0000000000000000    0.0000000000000000
    -1.9342655680567398    3.3502462392525949    0.0000000000000001
     0.0000000000000000   -0.0000000000000002   24.4619337296053558
   Y    C    I 
     2     1     2
Direct
  0.3333329854322145  0.6666669831836742  0.2475494428016560
  0.6666669847440474  0.3333329859851446  0.3546117199983385
  0.0000000000000000  0.0000000000000000  0.3010806083999995
  0.3333329854322145  0.6666669831836742  0.4432006146923442
  0.6666669847440474  0.3333329859851446  0.1589605485076575

  0.00000000E+00  0.00000000E+00  0.00000000E+00
  0.00000000E+00  0.00000000E+00  0.00000000E+00
  0.00000000E+00  0.00000000E+00  0.00000000E+00
  0.00000000E+00  0.00000000E+00  0.00000000E+00
  0.00000000E+00  0.00000000E+00  0.00000000E+00
