Sc-Sc-C-H-H                             
   1.0000000000000000     
     3.2864838368910809    0.0000000000000000    0.0000000000000000
    -1.6432419184455405    2.8461784918716071    0.0000000000000000
     0.0000000000000000   -0.0000000000000005   32.1830204238835051
   Sc   C    H 
     2     1     2
Direct
  0.3333329854322145  0.6666669831836742  0.2620190355801100
  0.6666669847440474  0.3333329859851446  0.3401421272198846
  0.0000000000000000  0.0000000000000000  0.3010806083999995
  0.3333329854322145  0.6666669831836742  0.3719517694259764
  0.6666669847440474  0.3333329859851446  0.2302093937740253

  0.00000000E+00  0.00000000E+00  0.00000000E+00
  0.00000000E+00  0.00000000E+00  0.00000000E+00
  0.00000000E+00  0.00000000E+00  0.00000000E+00
  0.00000000E+00  0.00000000E+00  0.00000000E+00
  0.00000000E+00  0.00000000E+00  0.00000000E+00
