Y-Y-C-Se-Se                             
   1.0000000000000000     
     3.7705857407929284    0.0000000000000000    0.0000000000000000
    -1.8852928703964642    3.2654230387165768    0.0000000000000000
     0.0000000000000000    0.0000000000000002   25.1376480304627208
   Y    C    Se
     2     1     2
Direct
  0.3333329854322145  0.6666669831836742  0.2438579742791163
  0.6666669847440474  0.3333329859851446  0.3583031885208783
  0.0000000000000000  0.0000000000000000  0.3010806083999995
  0.3333329854322145  0.6666669831836742  0.4286667604027627
  0.6666669847440474  0.3333329859851446  0.1734944027972389

  0.00000000E+00  0.00000000E+00  0.00000000E+00
  0.00000000E+00  0.00000000E+00  0.00000000E+00
  0.00000000E+00  0.00000000E+00  0.00000000E+00
  0.00000000E+00  0.00000000E+00  0.00000000E+00
  0.00000000E+00  0.00000000E+00  0.00000000E+00
