Sc-Sc-C-Br-Br                           
   1.0000000000000000     
     3.5204912227531722    0.0000000000000000    0.0000000000000000
    -1.7602456113765861    3.0488348327038666    0.0000000000000000
     0.0000000000000000    0.0000000000000000   28.0432449661135017
   Sc   C    Br
     2     1     2
Direct
  0.3333329854322145  0.6666669831836742  0.2578391242790872
  0.6666669847440474  0.3333329859851446  0.3443220385209074
  0.0000000000000000  0.0000000000000000  0.3010806083999995
  0.3333329854322145  0.6666669831836742  0.4099332970421017
  0.6666669847440474  0.3333329859851446  0.1922278661579000

  0.00000000E+00  0.00000000E+00  0.00000000E+00
  0.00000000E+00  0.00000000E+00  0.00000000E+00
  0.00000000E+00  0.00000000E+00  0.00000000E+00
  0.00000000E+00  0.00000000E+00  0.00000000E+00
  0.00000000E+00  0.00000000E+00  0.00000000E+00
