Sc-Sc-C-I-I                             
   1.0000000000000000     
     3.6587384677099251    0.0000000000000000    0.0000000000000000
    -1.8293692338549625    3.1685604588395644    0.0000000000000000
     0.0000000000000000    0.0000000000000000   28.0432449661135017
   Sc   C    I 
     2     1     2
Direct
  0.3333329854322145  0.6666669831836742  0.2589219348341771
  0.6666669847440474  0.3333329859851446  0.3432392279658174
  0.0000000000000000  0.0000000000000000  0.3010806083999995
  0.3333329854322145  0.6666669831836742  0.4163728157891811
  0.6666669847440474  0.3333329859851446  0.1857883474108206

  0.00000000E+00  0.00000000E+00  0.00000000E+00
  0.00000000E+00  0.00000000E+00  0.00000000E+00
  0.00000000E+00  0.00000000E+00  0.00000000E+00
  0.00000000E+00  0.00000000E+00  0.00000000E+00
  0.00000000E+00  0.00000000E+00  0.00000000E+00
