Y-Y-C-H-H                               
   1.0000000000000000     
     3.5902799747690577    0.0000000000000000    0.0000000000000000
    -1.7951399873845288    3.1092736648538573    0.0000000000000000
     0.0000000000000000    0.0000000000000001   26.9527048432317180
   Y    C    H 
     2     1     2
Direct
  0.3333329854322145  0.6666669831836742  0.2503401398262284
  0.6666669847440474  0.3333329859851446  0.3518210229737662
  0.0000000000000000  0.0000000000000000  0.3010806083999995
  0.3333329854322145  0.6666669831836742  0.3913814429915092
  0.6666669847440474  0.3333329859851446  0.2107797202084924

  0.00000000E+00  0.00000000E+00  0.00000000E+00
  0.00000000E+00  0.00000000E+00  0.00000000E+00
  0.00000000E+00  0.00000000E+00  0.00000000E+00
  0.00000000E+00  0.00000000E+00  0.00000000E+00
  0.00000000E+00  0.00000000E+00  0.00000000E+00
