Y-Y-C-Br-Br                             
   1.0000000000000000     
     3.7681092047618137    0.0000000000000000    0.0000000000000000
    -1.8840546023809068    3.2632782955981581    0.0000000000000000
     0.0000000000000000    0.0000000000000002   25.1376480304627208
   Y    C    Br
     2     1     2
Direct
  0.3333329854322145  0.6666669831836742  0.2480471281657017
  0.6666669847440474  0.3333329859851446  0.3541140346342928
  0.0000000000000000  0.0000000000000000  0.3010806083999995
  0.3333329854322145  0.6666669831836742  0.4309387517681174
  0.6666669847440474  0.3333329859851446  0.1712224114318843

  0.00000000E+00  0.00000000E+00  0.00000000E+00
  0.00000000E+00  0.00000000E+00  0.00000000E+00
  0.00000000E+00  0.00000000E+00  0.00000000E+00
  0.00000000E+00  0.00000000E+00  0.00000000E+00
  0.00000000E+00  0.00000000E+00  0.00000000E+00
